BAYES
52
2 2 2 2 2 2 2 2 3 2 2 2 2 2 2 2 2 2 2 2 2 2 2 2 3 2 2 2 2 2 2 2 2 2 2 2 2 2 2 2 3 2 2 2 2 2 2 2 2 2 2 2 
52
1	0
1	1
1	2
1	3
1	4
1	5
1	6
2	0	7
2	2	8
2	1	9
2	7	10
2	8	11
2	9	12
2	9	13
3	0	1	14
3	2	14	15
3	10	3	16
3	11	4	17
3	12	5	18
3	13	6	19
1	20
1	21
1	22
2	20	23
2	22	24
2	21	25
2	23	26
2	24	27
2	25	28
2	25	29
3	20	21	30
3	22	30	31
3	26	16	32
3	27	17	33
3	28	18	34
3	29	19	35
1	36
1	37
1	38
2	36	39
2	38	40
2	37	41
2	39	42
2	40	43
2	41	44
2	41	45
3	36	37	46
3	38	46	47
3	42	32	48
3	43	33	49
3	44	34	50
3	45	35	51

2
 1.0 1.0

2
 1.0 1.0

2
 1.0 1.0

2
 1.0 0.0

2
 0.30000000000000004 0.7

2
 0.0 1.0

2
 1.0 0.0

4
 1.0 0.0
 0.0 1.0

6
 1.0 0.0 0.0
 0.0 0.8 0.19999999999999996

4
 1.0 0.0
 0.0 1.0

4
 1.0 0.0
 0.0 1.0

6
 1.0 0.0
 0.0 1.0
 1.0 0.0

4
 1.0 0.0
 0.0 1.0

4
 1.0 0.0
 0.0 1.0

8
 1.0 0.0
 0.0 1.0
 0.0 1.0
 0.0 0.0

8
 0.0 0.0
 0.0 1.0
 0.0 1.0
 0.0 0.0

8
 1.0 0.0
 0.0 1.0
 0.0 1.0
 0.0 1.0

8
 1.0 0.0
 0.0 1.0
 0.0 1.0
 0.0 1.0

8
 1.0 0.0
 0.0 1.0
 1.0 0.0
 1.0 0.0

8
 1.0 0.0
 0.0 1.0
 0.0 1.0
 0.0 1.0

2
 1.0 1.0

2
 1.0 1.0

2
 1.0 1.0

4
 1.0 0.0
 0.0 1.0

6
 1.0 0.0 0.0
 0.0 0.8 0.19999999999999996

4
 1.0 0.0
 0.0 1.0

4
 1.0 0.0
 0.0 1.0

6
 1.0 0.0
 0.0 1.0
 1.0 0.0

4
 1.0 0.0
 0.0 1.0

4
 1.0 0.0
 0.0 1.0

8
 1.0 0.0
 0.0 1.0
 0.0 1.0
 0.0 0.0

8
 0.0 0.0
 0.0 1.0
 0.0 1.0
 0.0 0.0

8
 1.0 0.0
 0.0 1.0
 0.0 1.0
 0.0 1.0

8
 1.0 0.0
 0.0 1.0
 0.0 1.0
 0.0 1.0

8
 1.0 0.0
 0.0 1.0
 1.0 0.0
 1.0 0.0

8
 1.0 0.0
 0.0 1.0
 0.0 1.0
 0.0 1.0

2
 1.0 1.0

2
 1.0 1.0

2
 1.0 1.0

4
 1.0 0.0
 0.0 1.0

6
 1.0 0.0 0.0
 0.0 0.8 0.19999999999999996

4
 1.0 0.0
 0.0 1.0

4
 1.0 0.0
 0.0 1.0

6
 1.0 0.0
 0.0 1.0
 1.0 0.0

4
 1.0 0.0
 0.0 1.0

4
 1.0 0.0
 0.0 1.0

8
 1.0 0.0
 0.0 1.0
 0.0 1.0
 0.0 0.0

8
 0.0 0.0
 0.0 1.0
 0.0 1.0
 0.0 0.0

8
 0.0 0.0
 0.0 1.0
 0.0 1.0
 0.0 1.0

8
 1.0 0.0
 0.0 1.0
 0.0 1.0
 0.0 1.0

8
 0.0 0.0
 0.0 1.0
 0.0 0.0
 0.0 0.0

8
 0.0 0.0
 0.0 1.0
 0.0 1.0
 0.0 1.0

